
n_res = 4;
rcap = [47, 48, 543, 541];
rtype = [1, 1, 2, 2];
n_tasks = 50;
modes =  [{1, 2, 3, 4, 5, 6}, {7, 8, 9, 10, 11, 12}, {13, 14, 15, 16, 17, 18}, {19, 20, 21, 22, 23, 24}, {25, 26, 27, 28, 29, 30}, {31, 32, 33, 34, 35, 36}, {37, 38, 39, 40, 41, 42}, {43, 44, 45, 46, 47, 48}, {49, 50, 51, 52, 53, 54}, {55, 56, 57, 58, 59, 60}, {61, 62, 63, 64, 65, 66}, {67, 68, 69, 70, 71, 72}, {73, 74, 75, 76, 77, 78}, {79, 80, 81, 82, 83, 84}, {85, 86, 87, 88, 89, 90}, {91, 92, 93, 94, 95, 96}, {97, 98, 99, 100, 101, 102}, {103, 104, 105, 106, 107, 108}, {109, 110, 111, 112, 113, 114}, {115, 116, 117, 118, 119, 120}, {121, 122, 123, 124, 125, 126}, {127, 128, 129, 130, 131, 132}, {133, 134, 135, 136, 137, 138}, {139, 140, 141, 142, 143, 144}, {145, 146, 147, 148, 149, 150}, {151, 152, 153, 154, 155, 156}, {157, 158, 159, 160, 161, 162}, {163, 164, 165, 166, 167, 168}, {169, 170, 171, 172, 173, 174}, {175, 176, 177, 178, 179, 180}, {181, 182, 183, 184, 185, 186}, {187, 188, 189, 190, 191, 192}, {193, 194, 195, 196, 197, 198}, {199, 200, 201, 202, 203, 204}, {205, 206, 207, 208, 209, 210}, {211, 212, 213, 214, 215, 216}, {217, 218, 219, 220, 221, 222}, {223, 224, 225, 226, 227, 228}, {229, 230, 231, 232, 233, 234}, {235, 236, 237, 238, 239, 240}, {241, 242, 243, 244, 245, 246}, {247, 248, 249, 250, 251, 252}, {253, 254, 255, 256, 257, 258}, {259, 260, 261, 262, 263, 264}, {265, 266, 267, 268, 269, 270}, {271, 272, 273, 274, 275, 276}, {277, 278, 279, 280, 281, 282}, {283, 284, 285, 286, 287, 288}, {289, 290, 291, 292, 293, 294}, {295, 296, 297, 298, 299, 300}];
succ =  [{50, 49, 31, 29, 25, 24, 22, 17, 14, 12}, {48, 43, 30, 29, 25, 21, 11}, {48, 43, 32, 30, 21, 11}, {50, 47, 45, 44, 43, 42, 32, 31, 28, 25, 22, 21}, {49, 48, 46, 45, 43, 31, 29, 28, 26, 24, 21}, {48, 43, 32, 21, 11}, {49, 44, 31, 30, 29, 28, 27, 24, 22}, {50, 48, 47, 45, 44, 43, 41, 39, 37, 35, 30, 28, 24}, {48, 46, 42, 41, 32, 29, 27, 25, 18}, {47, 46, 43, 42, 39, 35, 31, 30, 29, 27}, {47, 46, 45, 44, 41, 39, 36, 35, 28, 24}, {47, 46, 45, 44, 42, 41, 39, 38, 21}, {49, 30, 29, 27, 25, 18}, {46, 45, 43, 42, 40, 39, 37, 35, 30, 27}, {46, 45, 44, 42, 40, 38, 36, 35, 29}, {48, 43, 41, 36, 25}, {43, 40, 37, 35, 28}, {43, 39, 38, 37, 36}, {41, 40, 39, 36, 35}, {42, 41, 38, 37, 35}, {37, 35, 27}, {39, 36, 35}, {37, 36, 35}, {42, 40}, {40, 35}, {39, 37}, {36}, {38}, {37}, {38}, {41}, {36}, {44}, {38}, {}, {}, {}, {}, {}, {}, {}, {}, {}, {}, {}, {}, {}, {}, {}, {}];
n_opt = 300;
dur = [2, 6, 8, 9, 11, 15, 2, 7, 12, 15, 17, 18, 3, 4, 14, 15, 16, 17, 1, 2, 4, 5, 6, 7, 2, 3, 4, 12, 14, 15, 2, 7, 13, 14, 18, 20, 9, 14, 15, 16, 17, 19, 10, 11, 12, 13, 14, 17, 9, 14, 15, 16, 18, 19, 1, 3, 11, 14, 17, 18, 6, 7, 8, 11, 14, 16, 5, 6, 7, 11, 13, 16, 1, 2, 3, 15, 16, 18, 2, 7, 9, 10, 18, 20, 2, 4, 9, 11, 13, 19, 2, 7, 9, 10, 14, 15, 1, 3, 5, 10, 13, 20, 8, 9, 10, 11, 13, 17, 2, 13, 14, 15, 18, 20, 10, 11, 12, 13, 15, 16, 5, 6, 10, 11, 18, 20, 1, 9, 10, 11, 12, 15, 2, 8, 10, 12, 13, 16, 1, 6, 9, 12, 13, 19, 12, 13, 14, 15, 18, 19, 2, 3, 9, 13, 19, 20, 4, 5, 9, 14, 18, 20, 3, 9, 11, 16, 18, 19, 5, 9, 10, 11, 13, 16, 9, 10, 13, 14, 15, 16, 4, 8, 14, 18, 19, 20, 2, 3, 7, 10, 11, 17, 2, 3, 5, 7, 17, 18, 2, 3, 6, 7, 8, 15, 1, 5, 13, 14, 15, 17, 1, 5, 8, 10, 17, 18, 1, 9, 11, 12, 13, 15, 6, 7, 8, 10, 12, 13, 1, 2, 3, 5, 17, 18, 4, 5, 9, 10, 11, 13, 4, 5, 9, 10, 17, 20, 1, 3, 4, 5, 7, 9, 4, 13, 14, 17, 19, 20, 2, 11, 15, 16, 19, 20, 7, 9, 10, 14, 15, 16, 8, 9, 10, 13, 15, 17, 2, 8, 9, 12, 13, 14, 1, 5, 8, 9, 14, 20, 1, 3, 10, 14, 17, 19, 2, 3, 8, 14, 18, 19];
rreq = [|4, 3, 3, 3, 3, 3, 2, 2, 2, 2, 1, 1, 4, 3, 3, 3, 2, 2, 5, 3, 3, 3, 2, 1, 2, 2, 2, 2, 1, 1, 4, 4, 4, 4, 4, 4, 5, 4, 4, 3, 3, 3, 2, 2, 2, 2, 2, 2, 3, 3, 3, 2, 1, 1, 3, 2, 2, 2, 2, 2, 2, 2, 2, 2, 2, 2, 4, 3, 3, 3, 3, 3, 2, 1, 1, 1, 1, 1, 5, 4, 4, 4, 4, 4, 4, 3, 3, 2, 2, 2, 2, 2, 2, 2, 2, 2, 3, 3, 3, 3, 3, 3, 5, 4, 4, 3, 2, 2, 4, 3, 3, 3, 3, 3, 2, 2, 2, 2, 2, 2, 4, 3, 3, 3, 2, 1, 4, 4, 4, 4, 4, 4, 5, 4, 4, 4, 4, 4, 4, 4, 3, 3, 2, 2, 1, 1, 1, 1, 1, 1, 4, 4, 4, 4, 4, 4, 4, 4, 4, 3, 3, 3, 5, 3, 3, 2, 1, 1, 4, 4, 4, 4, 3, 3, 5, 4, 4, 4, 4, 4, 4, 3, 3, 3, 3, 3, 4, 3, 3, 3, 1, 1, 3, 2, 2, 1, 1, 1, 5, 4, 3, 2, 1, 1, 4, 3, 2, 2, 2, 1, 5, 5, 5, 5, 5, 5, 1, 1, 1, 1, 1, 1, 2, 2, 2, 2, 2, 2, 5, 4, 4, 4, 4, 4, 2, 1, 1, 1, 1, 1, 5, 5, 5, 5, 5, 5, 1, 1, 1, 1, 1, 1, 2, 2, 2, 2, 2, 2, 2, 2, 2, 2, 2, 2, 2, 2, 2, 2, 2, 2, 1, 1, 1, 1, 1, 1, 4, 4, 4, 4, 3, 3, 5, 4, 3, 3, 2, 1, 1, 1, 1, 1, 1, 1, 4, 3, 3, 2, 2, 2
 |4, 3, 3, 2, 1, 1, 2, 2, 2, 2, 2, 2, 5, 4, 4, 4, 3, 3, 4, 3, 3, 3, 3, 3, 5, 5, 5, 5, 5, 5, 4, 4, 3, 3, 1, 1, 5, 4, 4, 4, 4, 4, 3, 2, 2, 1, 1, 1, 2, 1, 1, 1, 1, 1, 3, 3, 3, 2, 2, 2, 4, 3, 3, 2, 1, 1, 3, 2, 2, 2, 2, 2, 2, 2, 2, 2, 2, 2, 3, 2, 2, 2, 1, 1, 3, 3, 3, 3, 3, 3, 4, 3, 2, 2, 1, 1, 3, 3, 3, 3, 3, 3, 4, 4, 4, 3, 2, 2, 5, 5, 5, 5, 5, 5, 3, 3, 3, 3, 2, 2, 4, 3, 3, 2, 1, 1, 4, 4, 4, 4, 4, 4, 3, 2, 2, 2, 2, 2, 5, 3, 3, 3, 2, 1, 2, 1, 1, 1, 1, 1, 2, 2, 2, 1, 1, 1, 3, 3, 3, 2, 2, 2, 3, 3, 3, 2, 1, 1, 4, 4, 4, 3, 3, 3, 1, 1, 1, 1, 1, 1, 1, 1, 1, 1, 1, 1, 4, 3, 3, 2, 2, 2, 3, 2, 2, 2, 2, 2, 3, 3, 3, 3, 3, 3, 4, 4, 4, 4, 3, 3, 1, 1, 1, 1, 1, 1, 4, 3, 3, 2, 2, 2, 3, 3, 3, 3, 3, 3, 3, 2, 2, 1, 1, 1, 3, 2, 2, 2, 1, 1, 3, 3, 3, 3, 2, 2, 4, 4, 4, 3, 3, 3, 2, 2, 2, 2, 2, 2, 4, 4, 4, 3, 3, 3, 2, 2, 2, 2, 2, 2, 2, 2, 2, 2, 2, 2, 2, 2, 2, 1, 1, 1, 2, 2, 2, 2, 2, 2, 3, 3, 3, 3, 3, 3, 1, 1, 1, 1, 1, 1
 |12, 12, 12, 12, 12, 12, 9, 9, 9, 8, 8, 8, 18, 14, 14, 12, 9, 7, 18, 17, 17, 15, 15, 14, 17, 17, 17, 17, 17, 17, 13, 11, 10, 7, 6, 5, 18, 14, 12, 9, 4, 2, 16, 15, 13, 13, 12, 11, 15, 15, 15, 15, 15, 15, 10, 10, 10, 9, 9, 8, 17, 17, 17, 17, 17, 17, 15, 14, 11, 11, 9, 7, 14, 11, 8, 7, 5, 3, 19, 17, 17, 15, 14, 14, 13, 11, 9, 7, 6, 3, 15, 12, 11, 9, 5, 2, 18, 17, 17, 15, 12, 12, 7, 7, 6, 5, 3, 3, 15, 14, 14, 14, 14, 14, 7, 6, 6, 5, 5, 5, 13, 13, 11, 10, 10, 8, 3, 3, 3, 2, 2, 2, 13, 13, 12, 11, 10, 10, 17, 16, 15, 14, 13, 13, 16, 15, 14, 12, 12, 11, 17, 17, 17, 17, 17, 17, 17, 13, 11, 10, 7, 7, 16, 14, 13, 12, 10, 8, 15, 14, 14, 13, 13, 13, 15, 14, 12, 11, 11, 9, 18, 16, 12, 9, 6, 6, 14, 12, 10, 9, 6, 5, 9, 7, 7, 4, 3, 1, 5, 5, 5, 5, 5, 5, 18, 15, 13, 11, 10, 9, 17, 16, 16, 16, 16, 16, 8, 6, 5, 5, 3, 3, 10, 10, 8, 7, 6, 6, 17, 17, 17, 17, 17, 17, 11, 10, 9, 8, 8, 7, 9, 8, 7, 7, 6, 5, 13, 12, 8, 6, 6, 3, 12, 9, 9, 6, 3, 3, 12, 11, 11, 11, 11, 11, 6, 5, 5, 5, 5, 5, 15, 13, 13, 12, 11, 10, 7, 7, 6, 5, 4, 3, 18, 16, 16, 15, 13, 12, 15, 14, 14, 14, 14, 14, 4, 3, 3, 3, 3, 3
 |18, 17, 16, 16, 16, 15, 13, 10, 7, 6, 5, 2, 5, 5, 4, 3, 2, 2, 9, 8, 7, 6, 6, 5, 7, 6, 5, 4, 3, 2, 4, 4, 4, 4, 4, 4, 17, 15, 14, 12, 10, 7, 9, 7, 6, 6, 4, 4, 14, 14, 13, 14, 15, 14, 18, 16, 14, 12, 10, 8, 14, 10, 8, 8, 5, 4, 5, 4, 4, 3, 2, 2, 3, 3, 3, 3, 3, 3, 12, 11, 9, 7, 6, 3, 14, 12, 11, 10, 9, 6, 16, 14, 13, 8, 8, 4, 13, 12, 11, 11, 11, 10, 15, 14, 13, 10, 9, 8, 19, 15, 13, 12, 11, 9, 17, 16, 15, 15, 14, 13, 20, 19, 19, 18, 18, 18, 9, 8, 6, 4, 2, 1, 20, 19, 18, 17, 16, 15, 18, 16, 15, 12, 10, 9, 17, 12, 11, 9, 6, 5, 20, 17, 16, 16, 14, 13, 14, 13, 11, 9, 8, 7, 17, 17, 17, 17, 17, 17, 6, 6, 5, 5, 4, 3, 15, 15, 15, 15, 14, 15, 9, 8, 7, 7, 6, 5, 15, 14, 14, 13, 12, 12, 11, 10, 9, 9, 8, 7, 17, 17, 16, 15, 14, 13, 18, 15, 14, 10, 10, 7, 13, 11, 10, 9, 8, 7, 19, 19, 19, 19, 18, 17, 17, 15, 12, 11, 8, 4, 20, 19, 18, 16, 15, 14, 19, 18, 18, 17, 17, 16, 3, 3, 2, 1, 2, 1, 4, 4, 4, 3, 2, 2, 18, 16, 15, 13, 12, 10, 18, 16, 12, 11, 7, 3, 16, 14, 11, 10, 6, 3, 15, 14, 13, 14, 14, 14, 6, 5, 6, 5, 5, 4, 17, 15, 15, 14, 14, 13, 11, 11, 10, 9, 8, 7, 16, 14, 13, 11, 9, 8|];